DATASET = "thpack1";
INSTANCE = "008";

WIDTH = 233;
HEIGHT = 220;
LENGTH = 587;

NO_OF_SHAPES = 3;
size = [|
  75,58,57 |
  57,37,30 |
  79,74,35 |
|];

verticality = [|
  1,1,1 |
  1,1,1 |
  0,0,1 |
|];

box_count = [
  58,
  66,
  56,
];
